sat
(= |goto_symex::&92;guard#1| true)
(= |goto_symex::&92;guard#2| false)
(= |memory_model::choice_rf_1_36_0_10_T_0| false)
(= |memory_model::choice_rf_1_36_2_20_T_1| false)
(= |memory_model::choice_rf_1_36_3_37_T_2| true)
(= |memory_model::choice_rf_2_19_0_10_T_3| false)
(= |memory_model::choice_rf_2_19_1_37_T_4| false)
(= |memory_model::choice_rf_2_19_3_37_T_5| true)
(= |memory_model::choice_rf_3_36_0_10_T_6| true)
(= |memory_model::choice_rf_3_36_1_37_T_7| false)
(= |memory_model::choice_rf_3_36_2_20_T_8| false)
(= |memory_model::choice_rf_0_45_0_8_T_9| false)
(= |memory_model::choice_rf_0_45_0_41_T_10| true)
(= |memory_model::choice_rf_0_50_0_8_T_11| false)
(= |memory_model::choice_rf_0_50_0_41_T_12| false)
(= |memory_model::choice_rf_0_50_0_46_T_13| true)
(= |memory_model::choice_rf_1_20_0_21_F_14| true)
(= |memory_model::choice_rf_1_20_2_0_F_15| false)
(= |memory_model::choice_rf_2_1_0_21_F_16| false)
(= |memory_model::choice_rf_2_1_2_0_F_17| true)
(= |memory_model::choice_rf_0_54_0_11_F_18| false)
(= |memory_model::choice_rf_0_54_1_35_F_19| false)
(= |memory_model::choice_rf_0_54_2_18_F_20| true)
(= |memory_model::choice_rf_0_54_3_35_F_21| false)
(= |memory_model::choice_rf_1_34_0_11_F_22| false)
(= |memory_model::choice_rf_1_34_2_18_F_23| false)
(= |memory_model::choice_rf_1_34_3_35_F_24| true)
(= |memory_model::choice_rf_2_17_0_11_F_25| false)
(= |memory_model::choice_rf_2_17_1_35_F_26| true)
(= |memory_model::choice_rf_2_17_3_35_F_27| false)
(= |memory_model::choice_rf_3_34_0_11_F_28| true)
(= |memory_model::choice_rf_3_34_1_35_F_29| false)
(= |memory_model::choice_rf_3_34_2_18_F_30| false)
(= |memory_model::choice_rf_0_74_0_12_F_31| false)
(= |memory_model::choice_rf_0_74_1_21_F_32| true)
(= |memory_model::choice_rf_1_19_0_12_F_33| false)
(= |memory_model::choice_rf_0_71_0_13_F_34| false)
(= |memory_model::choice_rf_0_71_2_2_F_35| true)
(= |memory_model::choice_rf_0_70_0_14_F_36| false)
(= |memory_model::choice_rf_0_70_2_4_F_37| true)
(= |memory_model::choice_rf_0_73_0_15_F_38| false)
(= |memory_model::choice_rf_0_73_3_2_F_39| true)
(= |memory_model::choice_rf_0_72_0_16_F_40| false)
(= |memory_model::choice_rf_0_72_3_13_F_41| true)
(= |memory_model::choice_rf_0_56_0_17_F_42| false)
(= |memory_model::choice_rf_0_56_0_55_F_43| true)
(= |memory_model::choice_rf_0_69_0_18_F_44| false)
(= |memory_model::choice_rf_0_76_0_18_F_45| false)
(= |memory_model::choice_rf_0_76_0_75_F_46| true)
(= |memory_model::choice_rf_0_77_0_18_F_47| false)
(= |memory_model::choice_rf_0_77_0_75_F_48| true)
(= |memory_model::choice_rf_2_3_0_22_F_49| true)
(= |memory_model::choice_rf_2_3_3_0_F_50| false)
(= |memory_model::choice_rf_3_1_0_22_F_51| false)
(= |memory_model::choice_rf_3_1_3_0_F_52| true)
(= |memory_model::choice_rf_0_57_0_23_F_53| false)
(= |memory_model::choice_rf_0_57_1_33_F_54| false)
(= |memory_model::choice_rf_0_57_2_16_F_55| true)
(= |memory_model::choice_rf_0_57_3_16_F_56| false)
(= |memory_model::choice_rf_0_57_3_33_F_57| false)
(= |memory_model::choice_rf_1_22_0_23_F_58| false)
(= |memory_model::choice_rf_1_22_0_68_F_59| false)
(= |memory_model::choice_rf_1_22_2_16_F_60| false)
(= |memory_model::choice_rf_1_22_3_16_F_61| false)
(= |memory_model::choice_rf_1_22_3_33_F_62| true)
(= |memory_model::choice_rf_2_5_0_23_F_63| false)
(= |memory_model::choice_rf_2_5_0_68_F_64| false)
(= |memory_model::choice_rf_2_5_1_33_F_65| true)
(= |memory_model::choice_rf_2_5_3_16_F_66| false)
(= |memory_model::choice_rf_2_5_3_33_F_67| false)
(= |memory_model::choice_rf_3_9_0_23_F_68| true)
(= |memory_model::choice_rf_3_9_0_68_F_69| false)
(= |memory_model::choice_rf_3_9_1_33_F_70| false)
(= |memory_model::choice_rf_3_9_2_16_F_71| false)
(= |memory_model::choice_rf_3_22_0_23_F_72| false)
(= |memory_model::choice_rf_3_22_0_68_F_73| false)
(= |memory_model::choice_rf_3_22_1_33_F_74| false)
(= |memory_model::choice_rf_3_22_2_16_F_75| false)
(= |memory_model::choice_rf_3_22_3_16_F_76| true)
(= |memory_model::choice_rf_0_62_0_26_F_77| true)
(= |memory_model::choice_rf_1_7_0_26_F_78| true)
(= |memory_model::choice_rf_1_7_0_65_F_79| false)
(= |memory_model::choice_rf_1_6_0_27_F_80| true)
(= |memory_model::choice_rf_1_27_0_27_F_81| false)
(= |memory_model::choice_rf_1_27_1_10_F_82| true)
(= |memory_model::choice_rf_1_3_0_28_F_83| true)
(= |memory_model::choice_rf_1_3_2_13_F_84| false)
(= |memory_model::choice_rf_2_10_0_28_F_85| true)
(= |memory_model::choice_rf_1_1_0_29_F_86| true)
(= |memory_model::choice_rf_1_1_3_11_F_87| false)
(= |memory_model::choice_rf_1_1_3_30_F_88| false)
(= |memory_model::choice_rf_3_7_0_29_F_89| true)
(= |memory_model::choice_rf_3_27_0_29_F_90| false)
(= |memory_model::choice_rf_3_27_3_11_F_91| true)
(= |memory_model::choice_rf_0_59_0_30_F_92| false)
(= |memory_model::choice_rf_0_59_1_14_F_93| true)
(= |memory_model::choice_rf_1_5_0_30_F_94| false)
(= |memory_model::choice_rf_1_5_0_64_F_95| false)
(= |memory_model::choice_rf_1_4_0_31_F_96| false)
(= |memory_model::choice_rf_1_24_0_31_F_97| false)
(= |memory_model::choice_rf_1_24_1_13_F_98| true)
(= |memory_model::choice_rf_1_2_0_32_F_99| false)
(= |memory_model::choice_rf_1_2_2_12_F_100| false)
(= |memory_model::choice_rf_2_9_0_32_F_101| false)
(= |memory_model::choice_rf_2_9_1_12_F_102| true)
(= |memory_model::choice_rf_1_0_0_33_F_103| false)
(= |memory_model::choice_rf_1_0_3_10_F_104| false)
(= |memory_model::choice_rf_1_0_3_29_F_105| false)
(= |memory_model::choice_rf_3_6_0_33_F_106| false)
(= |memory_model::choice_rf_3_6_1_11_F_107| true)
(= |memory_model::choice_rf_3_26_0_33_F_108| false)
(= |memory_model::choice_rf_3_26_1_11_F_109| false)
(= |memory_model::choice_rf_3_26_3_10_F_110| true)
(= |memory_model::choice_rf_0_61_0_36_F_111| false)
(= |memory_model::choice_rf_0_61_1_17_F_112| false)
(= |memory_model::choice_rf_0_61_3_15_F_113| true)
(= |memory_model::choice_rf_1_9_0_36_F_114| true)
(= |memory_model::choice_rf_1_9_3_15_F_115| false)
(= |memory_model::choice_rf_1_26_0_36_F_116| false)
(= |memory_model::choice_rf_1_26_1_17_F_117| false)
(= |memory_model::choice_rf_1_26_3_15_F_118| true)
(= |memory_model::choice_rf_2_8_0_36_F_119| false)
(= |memory_model::choice_rf_2_8_1_17_F_120| false)
(= |memory_model::choice_rf_2_8_3_15_F_121| true)
(= |memory_model::choice_rf_3_4_0_36_F_122| false)
(= |memory_model::choice_rf_3_4_1_17_F_123| true)
(= |memory_model::choice_rf_3_25_0_36_F_124| false)
(= |memory_model::choice_rf_3_25_1_17_F_125| false)
(= |memory_model::choice_rf_3_25_3_15_F_126| true)
(= |memory_model::choice_rf_0_63_0_37_F_127| false)
(= |memory_model::choice_rf_0_63_1_15_F_128| false)
(= |memory_model::choice_rf_0_63_1_32_F_129| false)
(= |memory_model::choice_rf_0_63_2_15_F_130| true)
(= |memory_model::choice_rf_0_63_3_19_F_131| false)
(= |memory_model::choice_rf_0_63_3_32_F_132| false)
(= |memory_model::choice_rf_1_8_0_37_F_133| true)
(= |memory_model::choice_rf_1_8_0_67_F_134| false)
(= |memory_model::choice_rf_1_8_2_15_F_135| false)
(= |memory_model::choice_rf_1_8_3_19_F_136| false)
(= |memory_model::choice_rf_1_8_3_32_F_137| false)
(= |memory_model::choice_rf_1_28_0_37_F_138| false)
(= |memory_model::choice_rf_1_28_0_67_F_139| false)
(= |memory_model::choice_rf_1_28_1_15_F_140| false)
(= |memory_model::choice_rf_1_28_2_15_F_141| false)
(= |memory_model::choice_rf_1_28_3_19_F_142| false)
(= |memory_model::choice_rf_1_28_3_32_F_143| true)
(= |memory_model::choice_rf_2_11_0_37_F_144| false)
(= |memory_model::choice_rf_2_11_0_67_F_145| false)
(= |memory_model::choice_rf_2_11_1_15_F_146| false)
(= |memory_model::choice_rf_2_11_1_32_F_147| true)
(= |memory_model::choice_rf_2_11_3_19_F_148| false)
(= |memory_model::choice_rf_2_11_3_32_F_149| false)
(= |memory_model::choice_rf_3_8_0_37_F_150| false)
(= |memory_model::choice_rf_3_8_0_67_F_151| false)
(= |memory_model::choice_rf_3_8_1_15_F_152| true)
(= |memory_model::choice_rf_3_8_1_32_F_153| false)
(= |memory_model::choice_rf_3_8_2_15_F_154| false)
(= |memory_model::choice_rf_3_28_0_37_F_155| false)
(= |memory_model::choice_rf_3_28_0_67_F_156| false)
(= |memory_model::choice_rf_3_28_1_15_F_157| false)
(= |memory_model::choice_rf_3_28_1_32_F_158| false)
(= |memory_model::choice_rf_3_28_2_15_F_159| false)
(= |memory_model::choice_rf_3_28_3_19_F_160| true)
(= |memory_model::choice_rf_0_58_0_38_F_161| false)
(= |memory_model::choice_rf_0_58_1_18_F_162| false)
(= |memory_model::choice_rf_0_58_3_14_F_163| true)
(= |memory_model::choice_rf_1_23_0_38_F_164| false)
(= |memory_model::choice_rf_1_23_1_18_F_165| false)
(= |memory_model::choice_rf_1_23_3_14_F_166| true)
(= |memory_model::choice_rf_2_6_0_38_F_167| false)
(= |memory_model::choice_rf_2_6_1_18_F_168| false)
(= |memory_model::choice_rf_2_6_3_14_F_169| true)
(= |memory_model::choice_rf_3_3_0_38_F_170| false)
(= |memory_model::choice_rf_3_3_1_18_F_171| true)
(= |memory_model::choice_rf_3_23_0_38_F_172| false)
(= |memory_model::choice_rf_3_23_1_18_F_173| false)
(= |memory_model::choice_rf_3_23_3_14_F_174| true)
(= |memory_model::choice_rf_0_60_0_39_F_175| false)
(= |memory_model::choice_rf_0_60_1_16_F_176| false)
(= |memory_model::choice_rf_0_60_1_31_F_177| false)
(= |memory_model::choice_rf_0_60_2_14_F_178| true)
(= |memory_model::choice_rf_0_60_3_12_F_179| false)
(= |memory_model::choice_rf_0_60_3_31_F_180| false)
(= |memory_model::choice_rf_1_25_0_39_F_181| false)
(= |memory_model::choice_rf_1_25_0_66_F_182| false)
(= |memory_model::choice_rf_1_25_1_16_F_183| false)
(= |memory_model::choice_rf_1_25_2_14_F_184| false)
(= |memory_model::choice_rf_1_25_3_12_F_185| false)
(= |memory_model::choice_rf_1_25_3_31_F_186| true)
(= |memory_model::choice_rf_2_7_0_39_F_187| false)
(= |memory_model::choice_rf_2_7_0_66_F_188| false)
(= |memory_model::choice_rf_2_7_1_16_F_189| false)
(= |memory_model::choice_rf_2_7_1_31_F_190| true)
(= |memory_model::choice_rf_2_7_3_12_F_191| false)
(= |memory_model::choice_rf_2_7_3_31_F_192| false)
(= |memory_model::choice_rf_3_5_0_39_F_193| false)
(= |memory_model::choice_rf_3_5_0_66_F_194| false)
(= |memory_model::choice_rf_3_5_1_16_F_195| true)
(= |memory_model::choice_rf_3_5_1_31_F_196| false)
(= |memory_model::choice_rf_3_5_2_14_F_197| false)
(= |memory_model::choice_rf_3_24_0_39_F_198| false)
(= |memory_model::choice_rf_3_24_0_66_F_199| false)
(= |memory_model::choice_rf_3_24_1_16_F_200| false)
(= |memory_model::choice_rf_3_24_1_31_F_201| false)
(= |memory_model::choice_rf_3_24_2_14_F_202| false)
(= |memory_model::choice_rf_3_24_3_12_F_203| true)
(= |memory_model::choice_ws-ext_0_10_1_37_T_204| true)
(= |memory_model::choice_ws-ext_0_10_2_20_T_205| true)
(= |memory_model::choice_ws-ext_0_10_3_37_T_206| true)
(= |memory_model::choice_ws-ext_1_37_2_20_T_207| true)
(= |memory_model::choice_ws-ext_1_37_3_37_T_208| false)
(= |memory_model::choice_ws-ext_2_20_3_37_T_209| false)
(= |memory_model::choice_ws-ext_0_21_2_0_F_210| true)
(= |memory_model::choice_ws-ext_0_11_1_35_F_211| true)
(= |memory_model::choice_ws-ext_0_11_2_18_F_212| true)
(= |memory_model::choice_ws-ext_0_11_3_35_F_213| true)
(= |memory_model::choice_ws-ext_1_35_2_18_F_214| true)
(= |memory_model::choice_ws-ext_1_35_3_35_F_215| false)
(= |memory_model::choice_ws-ext_2_18_3_35_F_216| false)
(= |memory_model::choice_ws-ext_0_12_1_21_F_217| true)
(= |memory_model::choice_ws-ext_0_13_2_2_F_218| true)
(= |memory_model::choice_ws-ext_0_14_2_4_F_219| true)
(= |memory_model::choice_ws-ext_0_15_3_2_F_220| true)
(= |memory_model::choice_ws-ext_0_16_3_13_F_221| true)
(= |memory_model::choice_ws-ext_0_22_3_0_F_222| true)
(= |memory_model::choice_ws-ext_0_23_1_33_F_223| true)
(= |memory_model::choice_ws-ext_0_23_2_16_F_224| true)
(= |memory_model::choice_ws-ext_0_23_3_16_F_225| true)
(= |memory_model::choice_ws-ext_0_23_3_33_F_226| true)
(= |memory_model::choice_ws-ext_0_68_1_33_F_227| false)
(= |memory_model::choice_ws-ext_0_68_2_16_F_228| false)
(= |memory_model::choice_ws-ext_0_68_3_16_F_229| false)
(= |memory_model::choice_ws-ext_0_68_3_33_F_230| false)
(= |memory_model::choice_ws-ext_1_33_2_16_F_231| true)
(= |memory_model::choice_ws-ext_1_33_3_16_F_232| false)
(= |memory_model::choice_ws-ext_1_33_3_33_F_233| false)
(= |memory_model::choice_ws-ext_2_16_3_16_F_234| false)
(= |memory_model::choice_ws-ext_2_16_3_33_F_235| false)
(= |memory_model::choice_ws-ext_0_24_3_18_F_236| true)
(= |memory_model::choice_ws-ext_0_25_3_17_F_237| true)
(= |memory_model::choice_ws-ext_0_27_1_10_F_238| true)
(= |memory_model::choice_ws-ext_0_27_1_30_F_239| true)
(= |memory_model::choice_ws-ext_0_28_2_13_F_240| true)
(= |memory_model::choice_ws-ext_0_29_3_11_F_241| true)
(= |memory_model::choice_ws-ext_0_29_3_30_F_242| true)
(= |memory_model::choice_ws-ext_0_30_1_14_F_243| true)
(= |memory_model::choice_ws-ext_0_64_1_14_F_244| false)
(= |memory_model::choice_ws-ext_0_31_1_13_F_245| true)
(= |memory_model::choice_ws-ext_0_31_1_29_F_246| true)
(= |memory_model::choice_ws-ext_0_32_1_12_F_247| true)
(= |memory_model::choice_ws-ext_0_32_2_12_F_248| true)
(= |memory_model::choice_ws-ext_1_12_2_12_F_249| true)
(= |memory_model::choice_ws-ext_0_33_1_11_F_250| true)
(= |memory_model::choice_ws-ext_0_33_3_10_F_251| true)
(= |memory_model::choice_ws-ext_0_33_3_29_F_252| true)
(= |memory_model::choice_ws-ext_1_11_3_10_F_253| true)
(= |memory_model::choice_ws-ext_1_11_3_29_F_254| true)
(= |memory_model::choice_ws-ext_0_36_1_17_F_255| true)
(= |memory_model::choice_ws-ext_0_36_3_15_F_256| true)
(= |memory_model::choice_ws-ext_1_17_3_15_F_257| true)
(= |memory_model::choice_ws-ext_0_37_1_15_F_258| true)
(= |memory_model::choice_ws-ext_0_37_1_32_F_259| true)
(= |memory_model::choice_ws-ext_0_37_2_15_F_260| true)
(= |memory_model::choice_ws-ext_0_37_3_19_F_261| true)
(= |memory_model::choice_ws-ext_0_37_3_32_F_262| true)
(= |memory_model::choice_ws-ext_0_67_1_15_F_263| false)
(= |memory_model::choice_ws-ext_0_67_1_32_F_264| false)
(= |memory_model::choice_ws-ext_0_67_2_15_F_265| false)
(= |memory_model::choice_ws-ext_0_67_3_19_F_266| false)
(= |memory_model::choice_ws-ext_0_67_3_32_F_267| false)
(= |memory_model::choice_ws-ext_1_15_2_15_F_268| true)
(= |memory_model::choice_ws-ext_1_15_3_19_F_269| true)
(= |memory_model::choice_ws-ext_1_15_3_32_F_270| true)
(= |memory_model::choice_ws-ext_1_32_2_15_F_271| true)
(= |memory_model::choice_ws-ext_1_32_3_19_F_272| false)
(= |memory_model::choice_ws-ext_1_32_3_32_F_273| false)
(= |memory_model::choice_ws-ext_2_15_3_19_F_274| false)
(= |memory_model::choice_ws-ext_2_15_3_32_F_275| false)
(= |memory_model::choice_ws-ext_0_38_1_18_F_276| true)
(= |memory_model::choice_ws-ext_0_38_3_14_F_277| true)
(= |memory_model::choice_ws-ext_1_18_3_14_F_278| true)
(= |memory_model::choice_ws-ext_0_39_1_16_F_279| true)
(= |memory_model::choice_ws-ext_0_39_1_31_F_280| true)
(= |memory_model::choice_ws-ext_0_39_2_14_F_281| true)
(= |memory_model::choice_ws-ext_0_39_3_12_F_282| true)
(= |memory_model::choice_ws-ext_0_39_3_31_F_283| true)
(= |memory_model::choice_ws-ext_0_66_1_16_F_284| false)
(= |memory_model::choice_ws-ext_0_66_1_31_F_285| false)
(= |memory_model::choice_ws-ext_0_66_2_14_F_286| false)
(= |memory_model::choice_ws-ext_0_66_3_12_F_287| false)
(= |memory_model::choice_ws-ext_0_66_3_31_F_288| false)
(= |memory_model::choice_ws-ext_1_16_2_14_F_289| true)
(= |memory_model::choice_ws-ext_1_16_3_12_F_290| true)
(= |memory_model::choice_ws-ext_1_16_3_31_F_291| true)
(= |memory_model::choice_ws-ext_1_31_2_14_F_292| true)
(= |memory_model::choice_ws-ext_1_31_3_12_F_293| false)
(= |memory_model::choice_ws-ext_1_31_3_31_F_294| false)
(= |memory_model::choice_ws-ext_2_14_3_12_F_295| false)
(= |memory_model::choice_ws-ext_2_14_3_31_F_296| false)
(= |memory_model::choice_ws-ext_0_19_3_21_F_297| true)
(= |memory_model::choice_ws-ext_0_20_3_20_F_298| true)
(= |main$tmp_guard0#3| #b00000001)
(= |__CPROVER_next_thread_id#3| #b00000000000000000000000000000001)
(= |__CPROVER_next_thread_id#6| #b00000000000000000000000000000010)
(= |__unbuffered_cnt#2| #b00000000000000000000000000000011)
(= |z$w_buff0_used#2| #b00000000)
(= |z$r_buff0_thd0#2| #b00000000)
(= |z$w_buff0#2| #b00000000000000000000000000000001)
(= |z$w_buff1_used#2| #b00000000)
(= |z$r_buff1_thd0#2| #b00000000)
(= |z$w_buff1#2| #b00000000000000000000000000000000)
(= |z#2| #b00000000000000000000000000000001)
(= |z#4| #b00000000000000000000000000000001)
(= |z$w_buff0_used#6| #b00000000)
(= |z$w_buff1_used#6| #b00000000)
(= |z$r_buff0_thd0#8| #b00000000)
(= |z$r_buff1_thd0#7| #b00000000)
(= |__unbuffered_p0_EAX#2| #b00000000000000000000000000000000)
(= |__unbuffered_p1_EAX#2| #b00000000000000000000000000000001)
(= |__unbuffered_p1_EBX#2| #b00000000000000000000000000000000)
(= |__unbuffered_p2_EAX#2| #b00000000000000000000000000000001)
(= |__unbuffered_p2_EBX#2| #b00000000000000000000000000000000)
(= |main$tmp_guard1#2| #b00000000)
(= |main$tmp_guard1#3| #b10000000)
(= |main$tmp_guard1#6| #b00000000)
(= |pthread_create::1::this_thread_id!1@0#0| #b10000000000000000000000000000000)
(= |z$w_buff0#4| #b00000000000000000000000000000000)
(= |z$w_buff0_used#11| #b00000000)
(= |z$r_buff0_thd0#11| #b00000000)
(= |z$r_buff1_thd0#9| #b00000000)
(= |z$r_buff1_thd0#10| #b10000000)
(= |z$r_buff0_thd1#2| #b00000000)
(= |z$r_buff1_thd1#2| #b00000000)
(= |z$r_buff1_thd1#3| #b10000000)
(= |z$r_buff0_thd2#2| #b00000000)
(= |z$r_buff1_thd2#2| #b00000000)
(= |z$r_buff1_thd2#3| #b10000000)
(= |z$r_buff0_thd3#2| #b00000000)
(= |z$r_buff1_thd3#2| #b00000000)
(= |z$r_buff1_thd3#3| #b10000000)
(= |z$r_buff0_thd1#4| #b00000001)
(= |x#2| #b00000000000000000000000000000000)
(= |__unbuffered_p0_EAX#4| #b00000000000000000000000000000000)
(= |__unbuffered_p0_EAX#5| #b10000000000000000000000000000000)
(= |z$w_buff0_used#14| #b00000001)
(= |z$r_buff0_thd1#6| #b00000001)
(= |z$w_buff0#7| #b00000000000000000000000000000001)
(= |z$w_buff1_used#10| #b00000000)
(= |z$r_buff1_thd1#5| #b00000000)
(= |z$w_buff1#5| #b00000000000000000000000000000000)
(= |z#6| #b00000000000000000000000000000000)
(= |z#8| #b00000000000000000000000000000001)
(= |z$w_buff0_used#18| #b00000000)
(= |z$w_buff1_used#14| #b00000000)
(= |z$r_buff0_thd1#12| #b00000001)
(= |z$r_buff1_thd1#10| #b00000000)
(= |__unbuffered_cnt#4| #b00000000000000000000000000000001)
(= |__unbuffered_cnt#6| #b00000000000000000000000000000010)
(= |pthread_create::1::this_thread_id!2@0#0| #b00000000000000000000000000000000)
(= |x#5| #b00000000000000000000000000000001)
(= |y#2| #b00000000000000000000000000000000)
(= |z$w_buff0_used#23| #b00000000)
(= |z$r_buff0_thd2#4| #b00000000)
(= |z$w_buff0#9| #b00000000000000000000000000000001)
(= |z$w_buff1_used#17| #b00000000)
(= |z$r_buff1_thd2#5| #b00000000)
(= |z$w_buff1#7| #b00000000000000000000000000000000)
(= |z#10| #b00000000000000000000000000000001)
(= |__unbuffered_cnt#8| #b00000000000000000000000000000010)
(= |pthread_create::1::this_thread_id!3@0#0| #b00000000000000000000000000000000)
(= |y#5| #b00000000000000000000000000000001)
(= |nondet_symex::nondet3| #b00000000000000000000000000000000)
(= |z#13| #b00000000000000000000000000000000)
(= |z$w_buff0_used#26| #b00000001)
(= |z$r_buff0_thd3#4| #b00000000)
(= |z$w_buff1_used#20| #b00000000)
(= |z$r_buff1_thd3#5| #b00000000)
(= |z$w_buff0#11| #b00000000000000000000000000000001)
(= |z$w_buff1#9| #b00000000000000000000000000000000)
(= |z$w_buff0_used#29| #b00000001)
(= |z$r_buff0_thd3#7| #b00000000)
(= |z$w_buff0#14| #b00000000000000000000000000000001)
(= |z$w_buff1_used#23| #b00000000)
(= |z$r_buff1_thd3#8| #b00000000)
(= |z$w_buff1#12| #b00000000000000000000000000000000)
(= |z#17| #b00000000000000000000000000000000)
(= |__unbuffered_cnt#11| #b00000000000000000000000000000000)
(= |__CPROVER_threads_exited#1$wclk$8| #b00101010)
(= |__CPROVER_threads_exited#2$rclk$8| #b11111100)
(= |__CPROVER_threads_exited#5$wclk$8| #b11111111)
(= |__CPROVER_threads_exited#7$wclk$8| #b11111011)
(= |__CPROVER_threads_exited#4$rclk$8| #b11111100)
(= |__CPROVER_threads_exited#3$wclk$8| #b11111101)
(= |__CPROVER_threads_exited#6$rclk$8| #b11011111)
(= |x#1$wclk$8| #b10001010)
(= |x#2$rclk$8| #b11000100)
(= |x#4$wclk$8| #b11000101)
(= |x#5$rclk$8| #b11000110)
(= |__unbuffered_cnt#7$wclk$8| #b11111000)
(= |__unbuffered_cnt#2$rclk$8| #b11111010)
(= |__unbuffered_cnt#10$wclk$8| #b11111001)
(= |__unbuffered_cnt#13$wclk$8| #b11011010)
(= |__unbuffered_cnt#1$wclk$8| #b00101011)
(= |__unbuffered_cnt#4$rclk$8| #b11111000)
(= |__unbuffered_cnt#8$rclk$8| #b11111001)
(= |__unbuffered_cnt#11$rclk$8| #b11011010)
(= |__unbuffered_p0_EAX#6$wclk$8| #b11000100)
(= |__unbuffered_p0_EAX#2$rclk$8| #b11111101)
(= |__unbuffered_p0_EAX#1$wclk$8| #b00101100)
(= |__unbuffered_p0_EAX#5$rclk$8| #b11000100)
(= |__unbuffered_p1_EAX#4$wclk$8| #b11000110)
(= |__unbuffered_p1_EAX#2$rclk$8| #b11111101)
(= |__unbuffered_p1_EBX#4$wclk$8| #b11000111)
(= |__unbuffered_p1_EBX#2$rclk$8| #b11111101)
(= |__unbuffered_p2_EAX#4$wclk$8| #b11001100)
(= |__unbuffered_p2_EAX#2$rclk$8| #b11111101)
(= |__unbuffered_p2_EBX#4$wclk$8| #b11001101)
(= |__unbuffered_p2_EBX#2$rclk$8| #b11111101)
(= |main$tmp_guard1#5| #b00000000)
(= |y#1$wclk$8| #b10001011)
(= |y#2$rclk$8| #b11000111)
(= |y#4$wclk$8| #b11001011)
(= |y#5$rclk$8| #b11001100)
(= |z#9$wclk$8| #b11110111)
(= |z#2$rclk$8| #b11111100)
(= |z#12$wclk$8| #b11111000)
(= |z#16$wclk$8| #b11001101)
(= |z#19$wclk$8| #b11011000)
(= |z#1$wclk$8| #b10001100)
(= |z#6$rclk$8| #b11110111)
(= |z#5$wclk$8| #b11111100)
(= |z#10$rclk$8| #b11111000)
(= |z#13$rclk$8| #b11001101)
(= |z#17$rclk$8| #b11011000)
(= |z$r_buff0_thd0#1$wclk$8| #b10001111)
(= |z$r_buff0_thd0#11$rclk$8| #b10111110)
(= |z$r_buff0_thd0#10$wclk$8| #b11111100)
(= |z$r_buff0_thd1#1$wclk$8| #b10010111)
(= |z$r_buff0_thd1#2$rclk$8| #b10111110)
(= |z$r_buff0_thd1#6$rclk$8| #b11110111)
(= |z$r_buff0_thd2#1$wclk$8| #b10011110)
(= |z$r_buff0_thd2#2$rclk$8| #b10111110)
(= |z$r_buff0_thd2#6$wclk$8| #b11111000)
(= |z$r_buff0_thd2#4$rclk$8| #b11111000)
(= |z$r_buff0_thd3#1$wclk$8| #b10101000)
(= |z$r_buff0_thd3#2$rclk$8| #b10111110)
(= |z$r_buff0_thd3#6$wclk$8| #b11001101)
(= |z$r_buff0_thd3#9$wclk$8| #b11011000)
(= |z$r_buff0_thd3#4$rclk$8| #b11001101)
(= |z$r_buff0_thd3#7$rclk$8| #b11011000)
(= |z$r_buff1_thd0#11$wclk$8| #b10111110)
(= |z$r_buff1_thd0#2$rclk$8| #b11111100)
(= |z$r_buff1_thd0#1$wclk$8| #b10101001)
(= |z$r_buff1_thd0#10$rclk$8| #b10111110)
(= |z$r_buff1_thd0#8$wclk$8| #b11111100)
(= |z$r_buff1_thd1#1$wclk$8| #b10101010)
(= |z$r_buff1_thd1#3$rclk$8| #b10111110)
(= |z$r_buff1_thd1#5$rclk$8| #b11110111)
(= |z$r_buff1_thd2#1$wclk$8| #b10101011)
(= |z$r_buff1_thd2#3$rclk$8| #b10111110)
(= |z$r_buff1_thd2#7$wclk$8| #b11111000)
(= |z$r_buff1_thd2#5$rclk$8| #b11111000)
(= |z$r_buff1_thd2#4$wclk$8| #b10111110)
(= |z$r_buff1_thd3#1$wclk$8| #b10101100)
(= |z$r_buff1_thd3#3$rclk$8| #b10111110)
(= |z$r_buff1_thd3#7$wclk$8| #b11001101)
(= |z$r_buff1_thd3#10$wclk$8| #b11011000)
(= |z$r_buff1_thd3#5$rclk$8| #b11001101)
(= |z$r_buff1_thd3#4$wclk$8| #b10111110)
(= |z$r_buff1_thd3#8$rclk$8| #b11011000)
(= |z$w_buff0#6$wclk$8| #b10111110)
(= |z$w_buff0#2$rclk$8| #b11111100)
(= |z$w_buff0#13$wclk$8| #b11001101)
(= |z$w_buff0#1$wclk$8| #b10101111)
(= |z$w_buff0#4$rclk$8| #b10111110)
(= |z$w_buff0#7$rclk$8| #b11110111)
(= |z$w_buff0#9$rclk$8| #b11111000)
(= |z$w_buff0#11$rclk$8| #b11001101)
(= |z$w_buff0#14$rclk$8| #b11011000)
(= |z$w_buff0_used#13$wclk$8| #b10111110)
(= |z$w_buff0_used#2$rclk$8| #b11111100)
(= |z$w_buff0_used#22$wclk$8| #b11110111)
(= |z$w_buff0_used#25$wclk$8| #b11111000)
(= |z$w_buff0_used#28$wclk$8| #b11001101)
(= |z$w_buff0_used#31$wclk$8| #b11011000)
(= |z$w_buff0_used#1$wclk$8| #b10110010)
(= |z$w_buff0_used#11$rclk$8| #b10111110)
(= |z$w_buff0_used#10$wclk$8| #b11111100)
(= |z$w_buff0_used#14$rclk$8| #b11110111)
(= |z$w_buff0_used#23$rclk$8| #b11111000)
(= |z$w_buff0_used#26$rclk$8| #b11001101)
(= |z$w_buff0_used#29$rclk$8| #b11011000)
(= |z$w_buff1#4$wclk$8| #b10111110)
(= |z$w_buff1#2$rclk$8| #b11111100)
(= |z$w_buff1#11$wclk$8| #b11001101)
(= |z$w_buff1#1$wclk$8| #b10110100)
(= |z$w_buff1#5$rclk$8| #b11110111)
(= |z$w_buff1#7$rclk$8| #b11111000)
(= |z$w_buff1#9$rclk$8| #b11001101)
(= |z$w_buff1#12$rclk$8| #b11011000)
(= |z$w_buff1_used#9$wclk$8| #b10111110)
(= |z$w_buff1_used#2$rclk$8| #b11111100)
(= |z$w_buff1_used#16$wclk$8| #b11110111)
(= |z$w_buff1_used#19$wclk$8| #b11111000)
(= |z$w_buff1_used#22$wclk$8| #b11001101)
(= |z$w_buff1_used#25$wclk$8| #b11011000)
(= |z$w_buff1_used#1$wclk$8| #b10110101)
(= |z$w_buff1_used#10$rclk$8| #b11110111)
(= |z$w_buff1_used#8$wclk$8| #b11111100)
(= |z$w_buff1_used#17$rclk$8| #b11111000)
(= |z$w_buff1_used#20$rclk$8| #b11001101)
(= |z$w_buff1_used#23$rclk$8| #b11011000)
(= |__unbuffered_p1_EAX#1$wclk$8| #b00101101)
(= |__unbuffered_p1_EBX#1$wclk$8| #b10000000)
(= |__unbuffered_p2_EAX#1$wclk$8| #b10000001)
(= |__unbuffered_p2_EBX#1$wclk$8| #b10000010)
(= |z$flush_delayed#1$wclk$8| #b10001101)
(= |z$flush_delayed#3$wclk$8| #b11001101)
(= |z$mem_tmp#1$wclk$8| #b10001110)
(= |z$mem_tmp#2$wclk$8| #b11001101)
(= |z$r_buff0_thd1#5$wclk$8| #b10111110)
(= |z$r_buff0_thd1#14$wclk$8| #b11110111)
(= |z$r_buff1_thd1#4$wclk$8| #b10111110)
(= |z$r_buff1_thd1#11$wclk$8| #b11110111)
(= |weak$$choice0#1$wclk$8| #b10001000)
(= |weak$$choice0#2$wclk$8| #b11001101)
(= |weak$$choice2#1$wclk$8| #b10001001)
(= |weak$$choice2#2$wclk$8| #b11001101)
(= t1$43$spwnclk$8 #b10111001)
(= t1$48$spwnclk$8 #b10111101)
(= t1$53$spwnclk$8 #b11001010)
(= |main::1::t86!0@1$wclk$8| #b00010000)
(= |main::1::t87!0@1$wclk$8| #b00100001)
(= |__CPROVER_dead_object#1$wclk$8| #b00100010)
(= |__CPROVER_deallocated#1$wclk$8| #b00100011)
(= |__CPROVER_malloc_is_new_array#1$wclk$8| #b00100100)
(= |__CPROVER_malloc_object#1$wclk$8| #b00100101)
(= |__CPROVER_malloc_size#1$wclk$8| #b00100110)
(= |__CPROVER_memory_leak#1$wclk$8| #b00100111)
(= |__CPROVER_next_thread_id#1$wclk$8| #b00101000)
(= |__CPROVER_pipe_count#1$wclk$8| #b00101001)
(= |main$tmp_guard0#1$wclk$8| #b10000011)
(= |main$tmp_guard1#1$wclk$8| #b10000101)
(= |z$read_delayed#1$wclk$8| #b10101101)
(= |z$read_delayed_var#1$wclk$8| #b10101110)
(= |main::1::t85!0@1#1$wclk$8| #b10110110)
(= |__CPROVER_next_thread_id#2$wclk$8| #b10110111)
(= |main::1::t85!0@1#2$wclk$8| #b10111000)
(= |main::1::t86!0@1#1$wclk$8| #b10111010)
(= |__CPROVER_next_thread_id#3$rclk$8| #b10111011)
(= |__CPROVER_next_thread_id#5$wclk$8| #b10111011)
(= |main::1::t86!0@1#2$wclk$8| #b10111100)
(= |main::1::t87!0@1#1$wclk$8| #b10111110)
(= |__CPROVER_next_thread_id#6$rclk$8| #b10111111)
(= |__CPROVER_next_thread_id#8$wclk$8| #b10111111)
(= |main::1::t87!0@1#2$wclk$8| #b11001000)
(= |main$tmp_guard0#2$wclk$8| #b11111010)
(= |main$tmp_guard0#3$rclk$8| #b11111011)
(= |z$r_buff0_thd0#2$rclk$8| #b11111100)
(= |main$tmp_guard1#3$rclk$8| #b11111101)
(= |main$tmp_guard1#4$wclk$8| #b11111101)
(= |main$tmp_guard1#5$rclk$8| #b11111110)
(= |main$tmp_guard1#6$rclk$8| #b11111111)
(= array_of.0 @fun_9)
(= |__CPROVER_threads_exited#2| @fun_7)
(= |__CPROVER_threads_exited#4| @fun_7)
(= |__CPROVER_threads_exited#6| @fun_9)
(function @fun_9
 (type (Array (_ BitVec 32) (_ BitVec 1)))
 (= (@fun_9 #b10000000000000000000000000000000) #b0)
 (= (@fun_9 #b00000000000000000000000000000000) #b0)
 (default #b1))
(function @fun_7
 (type (Array (_ BitVec 32) (_ BitVec 1)))
 (= (@fun_7 #b10000000000000000000000000000000) #b0)
 (default #b1))

real	0m0.025s
user	0m0.021s
sys	0m0.003s
State: AC Run_time: 0.027093172073364258